c Reduced graph for miles1000 generated by Cyril Grelier
p edge 109 2840
e 1 2
e 1 6
e 1 7
e 1 9
e 1 10
e 1 11
e 1 13
e 1 17
e 1 18
e 1 19
e 1 20
e 1 21
e 1 25
e 1 26
e 1 27
e 1 33
e 1 34
e 1 35
e 1 36
e 1 39
e 1 40
e 1 41
e 1 42
e 1 43
e 1 44
e 1 45
e 1 47
e 1 48
e 1 49
e 1 53
e 1 54
e 1 55
e 1 57
e 1 61
e 1 62
e 1 64
e 1 66
e 1 67
e 1 68
e 1 69
e 1 70
e 1 73
e 1 74
e 1 75
e 1 76
e 1 78
e 1 79
e 1 80
e 1 81
e 1 82
e 1 83
e 1 84
e 1 85
e 1 87
e 1 88
e 1 89
e 1 90
e 1 91
e 1 93
e 1 95
e 1 96
e 1 97
e 1 98
e 1 101
e 1 103
e 1 104
e 1 105
e 1 107
e 1 109
e 2 5
e 2 6
e 2 7
e 2 9
e 2 10
e 2 11
e 2 17
e 2 18
e 2 19
e 2 20
e 2 21
e 2 25
e 2 26
e 2 27
e 2 29
e 2 30
e 2 33
e 2 34
e 2 35
e 2 37
e 2 39
e 2 40
e 2 41
e 2 43
e 2 44
e 2 45
e 2 48
e 2 49
e 2 51
e 2 53
e 2 54
e 2 57
e 2 58
e 2 59
e 2 61
e 2 64
e 2 67
e 2 68
e 2 69
e 2 73
e 2 74
e 2 76
e 2 77
e 2 81
e 2 84
e 2 85
e 2 87
e 2 88
e 2 90
e 2 91
e 2 93
e 2 94
e 2 95
e 2 96
e 2 97
e 2 104
e 2 105
e 2 106
e 2 107
e 2 109
e 3 6
e 3 9
e 3 10
e 3 12
e 3 14
e 3 17
e 3 18
e 3 26
e 3 33
e 3 38
e 3 39
e 3 40
e 3 42
e 3 44
e 3 47
e 3 53
e 3 54
e 3 55
e 3 60
e 3 61
e 3 63
e 3 64
e 3 65
e 3 68
e 3 69
e 3 70
e 3 71
e 3 73
e 3 74
e 3 75
e 3 78
e 3 79
e 3 80
e 3 83
e 3 84
e 3 85
e 3 88
e 3 89
e 3 92
e 3 94
e 3 95
e 3 96
e 3 97
e 3 98
e 3 99
e 3 101
e 3 102
e 3 103
e 3 105
e 3 107
e 3 108
e 4 6
e 4 8
e 4 9
e 4 10
e 4 12
e 4 13
e 4 14
e 4 17
e 4 18
e 4 25
e 4 28
e 4 33
e 4 36
e 4 41
e 4 42
e 4 47
e 4 48
e 4 50
e 4 54
e 4 55
e 4 56
e 4 62
e 4 66
e 4 68
e 4 70
e 4 73
e 4 74
e 4 75
e 4 78
e 4 79
e 4 80
e 4 82
e 4 83
e 4 87
e 4 88
e 4 89
e 4 95
e 4 96
e 4 97
e 4 98
e 4 100
e 4 101
e 4 102
e 4 103
e 4 107
e 4 108
e 5 11
e 5 26
e 5 27
e 5 34
e 5 35
e 5 37
e 5 39
e 5 40
e 5 44
e 5 49
e 5 51
e 5 57
e 5 58
e 5 59
e 5 61
e 5 64
e 5 69
e 5 76
e 5 77
e 5 84
e 5 85
e 5 91
e 5 93
e 5 94
e 5 105
e 5 106
e 6 8
e 6 9
e 6 10
e 6 11
e 6 12
e 6 13
e 6 14
e 6 17
e 6 18
e 6 19
e 6 20
e 6 25
e 6 26
e 6 28
e 6 33
e 6 34
e 6 36
e 6 38
e 6 39
e 6 40
e 6 41
e 6 42
e 6 43
e 6 44
e 6 47
e 6 48
e 6 49
e 6 50
e 6 53
e 6 54
e 6 55
e 6 56
e 6 60
e 6 61
e 6 62
e 6 63
e 6 64
e 6 65
e 6 66
e 6 68
e 6 69
e 6 70
e 6 71
e 6 73
e 6 74
e 6 75
e 6 78
e 6 79
e 6 80
e 6 81
e 6 82
e 6 83
e 6 84
e 6 85
e 6 87
e 6 88
e 6 89
e 6 90
e 6 92
e 6 95
e 6 96
e 6 97
e 6 98
e 6 99
e 6 100
e 6 101
e 6 102
e 6 103
e 6 104
e 6 107
e 6 108
e 7 9
e 7 10
e 7 11
e 7 13
e 7 17
e 7 18
e 7 19
e 7 20
e 7 21
e 7 25
e 7 27
e 7 29
e 7 33
e 7 34
e 7 35
e 7 39
e 7 40
e 7 41
e 7 43
e 7 45
e 7 46
e 7 48
e 7 49
e 7 53
e 7 54
e 7 57
e 7 58
e 7 61
e 7 64
e 7 67
e 7 68
e 7 73
e 7 74
e 7 75
e 7 76
e 7 81
e 7 87
e 7 88
e 7 90
e 7 91
e 7 93
e 7 95
e 7 96
e 7 97
e 7 104
e 7 105
e 7 106
e 7 107
e 7 109
e 8 9
e 8 10
e 8 12
e 8 13
e 8 14
e 8 17
e 8 18
e 8 25
e 8 28
e 8 33
e 8 36
e 8 41
e 8 42
e 8 47
e 8 48
e 8 50
e 8 54
e 8 55
e 8 56
e 8 62
e 8 65
e 8 66
e 8 68
e 8 70
e 8 73
e 8 74
e 8 75
e 8 78
e 8 79
e 8 80
e 8 82
e 8 83
e 8 87
e 8 88
e 8 89
e 8 95
e 8 96
e 8 97
e 8 98
e 8 99
e 8 100
e 8 101
e 8 102
e 8 103
e 8 107
e 8 108
e 9 10
e 9 11
e 9 12
e 9 13
e 9 14
e 9 17
e 9 18
e 9 19
e 9 20
e 9 25
e 9 26
e 9 27
e 9 28
e 9 33
e 9 34
e 9 35
e 9 36
e 9 39
e 9 40
e 9 41
e 9 42
e 9 43
e 9 44
e 9 45
e 9 47
e 9 48
e 9 49
e 9 50
e 9 53
e 9 54
e 9 55
e 9 56
e 9 61
e 9 62
e 9 64
e 9 65
e 9 66
e 9 67
e 9 68
e 9 69
e 9 70
e 9 71
e 9 73
e 9 74
e 9 75
e 9 76
e 9 78
e 9 79
e 9 80
e 9 81
e 9 82
e 9 83
e 9 84
e 9 85
e 9 87
e 9 88
e 9 89
e 9 90
e 9 91
e 9 92
e 9 94
e 9 95
e 9 96
e 9 97
e 9 98
e 9 99
e 9 100
e 9 101
e 9 102
e 9 103
e 9 104
e 9 105
e 9 107
e 9 108
e 9 109
e 10 11
e 10 12
e 10 13
e 10 14
e 10 17
e 10 18
e 10 19
e 10 20
e 10 25
e 10 26
e 10 27
e 10 28
e 10 33
e 10 34
e 10 35
e 10 36
e 10 39
e 10 40
e 10 41
e 10 42
e 10 43
e 10 44
e 10 45
e 10 47
e 10 48
e 10 49
e 10 50
e 10 53
e 10 54
e 10 55
e 10 56
e 10 61
e 10 62
e 10 64
e 10 65
e 10 66
e 10 68
e 10 69
e 10 70
e 10 71
e 10 73
e 10 74
e 10 75
e 10 76
e 10 78
e 10 79
e 10 80
e 10 81
e 10 82
e 10 83
e 10 84
e 10 85
e 10 87
e 10 88
e 10 89
e 10 90
e 10 91
e 10 92
e 10 95
e 10 96
e 10 97
e 10 98
e 10 99
e 10 100
e 10 101
e 10 102
e 10 103
e 10 104
e 10 105
e 10 107
e 10 108
e 10 109
e 11 13
e 11 17
e 11 18
e 11 19
e 11 20
e 11 21
e 11 25
e 11 26
e 11 27
e 11 29
e 11 30
e 11 33
e 11 34
e 11 35
e 11 37
e 11 39
e 11 40
e 11 41
e 11 43
e 11 44
e 11 45
e 11 48
e 11 49
e 11 51
e 11 53
e 11 54
e 11 55
e 11 57
e 11 58
e 11 59
e 11 61
e 11 64
e 11 67
e 11 68
e 11 69
e 11 73
e 11 74
e 11 75
e 11 76
e 11 77
e 11 81
e 11 84
e 11 85
e 11 87
e 11 88
e 11 90
e 11 91
e 11 93
e 11 94
e 11 95
e 11 96
e 11 97
e 11 104
e 11 105
e 11 106
e 11 107
e 11 109
e 12 13
e 12 14
e 12 17
e 12 18
e 12 25
e 12 26
e 12 28
e 12 33
e 12 36
e 12 38
e 12 39
e 12 40
e 12 42
e 12 44
e 12 47
e 12 50
e 12 53
e 12 54
e 12 55
e 12 60
e 12 61
e 12 62
e 12 63
e 12 64
e 12 65
e 12 66
e 12 68
e 12 69
e 12 70
e 12 71
e 12 73
e 12 74
e 12 75
e 12 78
e 12 79
e 12 80
e 12 82
e 12 83
e 12 84
e 12 85
e 12 87
e 12 88
e 12 89
e 12 92
e 12 95
e 12 96
e 12 97
e 12 98
e 12 99
e 12 100
e 12 101
e 12 102
e 12 103
e 12 107
e 12 108
e 13 14
e 13 17
e 13 18
e 13 19
e 13 20
e 13 25
e 13 28
e 13 33
e 13 36
e 13 39
e 13 41
e 13 42
e 13 43
e 13 47
e 13 48
e 13 50
e 13 53
e 13 54
e 13 55
e 13 56
e 13 61
e 13 62
e 13 64
e 13 66
e 13 68
e 13 70
e 13 73
e 13 74
e 13 75
e 13 78
e 13 79
e 13 80
e 13 81
e 13 82
e 13 83
e 13 87
e 13 88
e 13 89
e 13 90
e 13 95
e 13 96
e 13 97
e 13 98
e 13 100
e 13 101
e 13 102
e 13 103
e 13 104
e 13 107
e 13 108
e 14 17
e 14 18
e 14 25
e 14 28
e 14 33
e 14 36
e 14 38
e 14 41
e 14 42
e 14 47
e 14 50
e 14 53
e 14 54
e 14 55
e 14 56
e 14 62
e 14 64
e 14 65
e 14 66
e 14 68
e 14 69
e 14 70
e 14 71
e 14 73
e 14 74
e 14 75
e 14 78
e 14 79
e 14 80
e 14 82
e 14 83
e 14 84
e 14 87
e 14 88
e 14 89
e 14 92
e 14 95
e 14 96
e 14 97
e 14 98
e 14 99
e 14 100
e 14 101
e 14 102
e 14 103
e 14 107
e 14 108
e 15 16
e 15 22
e 15 23
e 15 24
e 15 29
e 15 30
e 15 31
e 15 32
e 15 46
e 15 52
e 15 72
e 15 86
e 16 22
e 16 23
e 16 24
e 16 31
e 16 32
e 16 72
e 16 86
e 17 18
e 17 19
e 17 20
e 17 25
e 17 26
e 17 27
e 17 28
e 17 33
e 17 34
e 17 35
e 17 36
e 17 39
e 17 40
e 17 41
e 17 42
e 17 43
e 17 44
e 17 45
e 17 47
e 17 48
e 17 49
e 17 50
e 17 53
e 17 54
e 17 55
e 17 56
e 17 61
e 17 62
e 17 64
e 17 65
e 17 66
e 17 67
e 17 68
e 17 69
e 17 70
e 17 71
e 17 73
e 17 74
e 17 75
e 17 76
e 17 78
e 17 79
e 17 80
e 17 81
e 17 82
e 17 83
e 17 84
e 17 85
e 17 87
e 17 88
e 17 89
e 17 90
e 17 91
e 17 92
e 17 93
e 17 94
e 17 95
e 17 96
e 17 97
e 17 98
e 17 99
e 17 100
e 17 101
e 17 102
e 17 103
e 17 104
e 17 105
e 17 107
e 17 108
e 17 109
e 18 19
e 18 20
e 18 25
e 18 26
e 18 28
e 18 33
e 18 34
e 18 35
e 18 36
e 18 39
e 18 40
e 18 41
e 18 42
e 18 43
e 18 47
e 18 48
e 18 49
e 18 50
e 18 53
e 18 54
e 18 55
e 18 56
e 18 61
e 18 62
e 18 64
e 18 65
e 18 66
e 18 68
e 18 69
e 18 70
e 18 71
e 18 73
e 18 74
e 18 75
e 18 76
e 18 78
e 18 79
e 18 80
e 18 81
e 18 82
e 18 83
e 18 84
e 18 87
e 18 88
e 18 89
e 18 90
e 18 92
e 18 95
e 18 96
e 18 97
e 18 98
e 18 99
e 18 100
e 18 101
e 18 102
e 18 103
e 18 104
e 18 107
e 18 108
e 18 109
e 19 20
e 19 21
e 19 25
e 19 26
e 19 27
e 19 29
e 19 33
e 19 34
e 19 35
e 19 36
e 19 39
e 19 40
e 19 41
e 19 42
e 19 43
e 19 44
e 19 45
e 19 46
e 19 48
e 19 49
e 19 53
e 19 54
e 19 55
e 19 57
e 19 58
e 19 59
e 19 61
e 19 62
e 19 64
e 19 67
e 19 68
e 19 69
e 19 73
e 19 74
e 19 75
e 19 76
e 19 77
e 19 78
e 19 80
e 19 81
e 19 83
e 19 84
e 19 85
e 19 87
e 19 88
e 19 89
e 19 90
e 19 91
e 19 93
e 19 94
e 19 95
e 19 96
e 19 97
e 19 98
e 19 101
e 19 104
e 19 105
e 19 106
e 19 107
e 19 109
e 20 21
e 20 25
e 20 26
e 20 27
e 20 33
e 20 34
e 20 35
e 20 36
e 20 39
e 20 40
e 20 41
e 20 42
e 20 43
e 20 45
e 20 46
e 20 48
e 20 49
e 20 53
e 20 54
e 20 55
e 20 57
e 20 61
e 20 62
e 20 64
e 20 66
e 20 67
e 20 68
e 20 69
e 20 73
e 20 74
e 20 75
e 20 76
e 20 78
e 20 79
e 20 80
e 20 81
e 20 82
e 20 83
e 20 85
e 20 87
e 20 88
e 20 89
e 20 90
e 20 91
e 20 93
e 20 95
e 20 96
e 20 97
e 20 98
e 20 101
e 20 103
e 20 104
e 20 107
e 20 109
e 21 29
e 21 30
e 21 34
e 21 35
e 21 43
e 21 45
e 21 46
e 21 57
e 21 59
e 21 67
e 21 76
e 21 81
e 21 86
e 21 90
e 21 93
e 21 104
e 21 106
e 21 109
e 22 23
e 22 24
e 22 30
e 22 31
e 22 32
e 22 52
e 22 72
e 22 86
e 23 24
e 23 30
e 23 31
e 23 32
e 23 52
e 23 72
e 23 86
e 24 31
e 24 32
e 24 52
e 24 72
e 24 86
e 25 26
e 25 27
e 25 28
e 25 33
e 25 34
e 25 35
e 25 36
e 25 39
e 25 40
e 25 41
e 25 42
e 25 43
e 25 45
e 25 47
e 25 48
e 25 49
e 25 50
e 25 53
e 25 54
e 25 55
e 25 56
e 25 61
e 25 62
e 25 64
e 25 66
e 25 67
e 25 68
e 25 69
e 25 70
e 25 73
e 25 74
e 25 75
e 25 76
e 25 78
e 25 79
e 25 80
e 25 81
e 25 82
e 25 83
e 25 84
e 25 87
e 25 88
e 25 89
e 25 90
e 25 95
e 25 96
e 25 97
e 25 98
e 25 99
e 25 100
e 25 101
e 25 102
e 25 103
e 25 104
e 25 107
e 25 108
e 25 109
e 26 27
e 26 33
e 26 34
e 26 35
e 26 37
e 26 38
e 26 39
e 26 40
e 26 44
e 26 49
e 26 53
e 26 54
e 26 55
e 26 58
e 26 60
e 26 61
e 26 63
e 26 64
e 26 65
e 26 68
e 26 69
e 26 71
e 26 73
e 26 74
e 26 76
e 26 77
e 26 78
e 26 84
e 26 85
e 26 87
e 26 90
e 26 91
e 26 92
e 26 94
e 26 95
e 26 96
e 26 97
e 26 99
e 26 101
e 26 102
e 26 105
e 26 106
e 26 107
e 26 108
e 27 29
e 27 30
e 27 33
e 27 34
e 27 35
e 27 37
e 27 39
e 27 40
e 27 43
e 27 44
e 27 45
e 27 49
e 27 51
e 27 53
e 27 54
e 27 57
e 27 58
e 27 59
e 27 61
e 27 64
e 27 67
e 27 69
e 27 73
e 27 74
e 27 76
e 27 77
e 27 81
e 27 84
e 27 85
e 27 87
e 27 90
e 27 91
e 27 93
e 27 94
e 27 95
e 27 104
e 27 105
e 27 106
e 27 107
e 27 109
e 28 33
e 28 36
e 28 41
e 28 42
e 28 47
e 28 48
e 28 50
e 28 53
e 28 54
e 28 55
e 28 56
e 28 62
e 28 65
e 28 66
e 28 68
e 28 70
e 28 73
e 28 74
e 28 75
e 28 78
e 28 79
e 28 80
e 28 82
e 28 83
e 28 87
e 28 88
e 28 89
e 28 95
e 28 96
e 28 97
e 28 98
e 28 100
e 28 101
e 28 102
e 28 103
e 28 107
e 28 108
e 29 30
e 29 31
e 29 32
e 29 34
e 29 35
e 29 37
e 29 43
e 29 45
e 29 46
e 29 51
e 29 57
e 29 59
e 29 67
e 29 76
e 29 86
e 29 93
e 29 104
e 29 106
e 29 109
e 30 31
e 30 32
e 30 34
e 30 35
e 30 37
e 30 45
e 30 46
e 30 51
e 30 52
e 30 57
e 30 59
e 30 67
e 30 72
e 30 76
e 30 86
e 30 93
e 30 106
e 30 109
e 31 32
e 31 46
e 31 52
e 31 72
e 31 86
e 32 52
e 32 72
e 32 86
e 33 34
e 33 35
e 33 36
e 33 39
e 33 40
e 33 41
e 33 42
e 33 43
e 33 45
e 33 47
e 33 48
e 33 49
e 33 50
e 33 53
e 33 54
e 33 55
e 33 56
e 33 61
e 33 62
e 33 64
e 33 65
e 33 66
e 33 67
e 33 68
e 33 69
e 33 70
e 33 71
e 33 73
e 33 74
e 33 75
e 33 76
e 33 78
e 33 79
e 33 80
e 33 81
e 33 82
e 33 83
e 33 84
e 33 85
e 33 87
e 33 88
e 33 89
e 33 90
e 33 91
e 33 92
e 33 95
e 33 96
e 33 97
e 33 98
e 33 99
e 33 100
e 33 101
e 33 102
e 33 103
e 33 104
e 33 107
e 33 108
e 33 109
e 34 35
e 34 37
e 34 39
e 34 40
e 34 41
e 34 43
e 34 44
e 34 45
e 34 49
e 34 51
e 34 53
e 34 54
e 34 57
e 34 58
e 34 59
e 34 61
e 34 64
e 34 67
e 34 69
e 34 73
e 34 74
e 34 76
e 34 77
e 34 81
e 34 84
e 34 85
e 34 87
e 34 90
e 34 91
e 34 93
e 34 94
e 34 95
e 34 96
e 34 97
e 34 104
e 34 105
e 34 106
e 34 107
e 34 109
e 35 37
e 35 39
e 35 40
e 35 41
e 35 43
e 35 44
e 35 45
e 35 46
e 35 48
e 35 49
e 35 51
e 35 53
e 35 54
e 35 57
e 35 58
e 35 59
e 35 61
e 35 64
e 35 67
e 35 68
e 35 73
e 35 74
e 35 76
e 35 77
e 35 81
e 35 85
e 35 87
e 35 90
e 35 91
e 35 93
e 35 94
e 35 95
e 35 96
e 35 97
e 35 104
e 35 105
e 35 106
e 35 107
e 35 109
e 36 39
e 36 41
e 36 42
e 36 43
e 36 47
e 36 48
e 36 50
e 36 53
e 36 54
e 36 55
e 36 56
e 36 62
e 36 64
e 36 65
e 36 66
e 36 68
e 36 70
e 36 73
e 36 74
e 36 75
e 36 78
e 36 79
e 36 80
e 36 81
e 36 82
e 36 83
e 36 87
e 36 88
e 36 89
e 36 90
e 36 95
e 36 96
e 36 97
e 36 98
e 36 99
e 36 100
e 36 101
e 36 102
e 36 103
e 36 107
e 36 108
e 37 39
e 37 44
e 37 49
e 37 51
e 37 57
e 37 58
e 37 59
e 37 61
e 37 76
e 37 77
e 37 85
e 37 91
e 37 93
e 37 94
e 37 105
e 37 106
e 38 40
e 38 42
e 38 44
e 38 47
e 38 55
e 38 60
e 38 63
e 38 65
e 38 69
e 38 71
e 38 78
e 38 83
e 38 84
e 38 85
e 38 92
e 38 99
e 38 101
e 38 102
e 38 107
e 38 108
e 39 40
e 39 41
e 39 42
e 39 43
e 39 44
e 39 45
e 39 48
e 39 49
e 39 51
e 39 53
e 39 54
e 39 55
e 39 57
e 39 58
e 39 59
e 39 61
e 39 64
e 39 67
e 39 68
e 39 69
e 39 71
e 39 73
e 39 74
e 39 75
e 39 76
e 39 77
e 39 78
e 39 81
e 39 83
e 39 84
e 39 85
e 39 87
e 39 88
e 39 89
e 39 90
e 39 91
e 39 92
e 39 93
e 39 94
e 39 95
e 39 96
e 39 97
e 39 99
e 39 101
e 39 104
e 39 105
e 39 106
e 39 107
e 39 109
e 40 41
e 40 42
e 40 43
e 40 44
e 40 47
e 40 49
e 40 53
e 40 54
e 40 55
e 40 58
e 40 60
e 40 61
e 40 63
e 40 64
e 40 65
e 40 68
e 40 69
e 40 71
e 40 73
e 40 74
e 40 75
e 40 76
e 40 77
e 40 78
e 40 79
e 40 81
e 40 83
e 40 84
e 40 85
e 40 87
e 40 88
e 40 89
e 40 90
e 40 91
e 40 92
e 40 94
e 40 95
e 40 96
e 40 97
e 40 98
e 40 99
e 40 101
e 40 102
e 40 104
e 40 105
e 40 107
e 40 108
e 40 109
e 41 42
e 41 43
e 41 45
e 41 47
e 41 48
e 41 50
e 41 53
e 41 54
e 41 55
e 41 56
e 41 61
e 41 62
e 41 64
e 41 66
e 41 67
e 41 68
e 41 69
e 41 70
e 41 73
e 41 74
e 41 75
e 41 76
e 41 78
e 41 79
e 41 80
e 41 81
e 41 82
e 41 83
e 41 87
e 41 88
e 41 89
e 41 90
e 41 95
e 41 96
e 41 97
e 41 98
e 41 100
e 41 101
e 41 102
e 41 103
e 41 104
e 41 107
e 41 109
e 42 47
e 42 48
e 42 50
e 42 53
e 42 54
e 42 55
e 42 56
e 42 62
e 42 64
e 42 65
e 42 66
e 42 68
e 42 69
e 42 70
e 42 71
e 42 73
e 42 74
e 42 75
e 42 78
e 42 79
e 42 80
e 42 82
e 42 83
e 42 84
e 42 87
e 42 88
e 42 89
e 42 90
e 42 92
e 42 95
e 42 96
e 42 97
e 42 98
e 42 99
e 42 100
e 42 101
e 42 102
e 42 103
e 42 107
e 42 108
e 43 44
e 43 45
e 43 46
e 43 48
e 43 49
e 43 53
e 43 54
e 43 57
e 43 58
e 43 59
e 43 61
e 43 64
e 43 67
e 43 68
e 43 69
e 43 73
e 43 74
e 43 75
e 43 76
e 43 81
e 43 83
e 43 85
e 43 87
e 43 88
e 43 89
e 43 90
e 43 91
e 43 93
e 43 94
e 43 95
e 43 96
e 43 97
e 43 104
e 43 105
e 43 106
e 43 107
e 43 109
e 44 49
e 44 51
e 44 53
e 44 54
e 44 58
e 44 59
e 44 61
e 44 63
e 44 64
e 44 65
e 44 69
e 44 71
e 44 73
e 44 74
e 44 76
e 44 77
e 44 78
e 44 84
e 44 85
e 44 87
e 44 91
e 44 92
e 44 93
e 44 94
e 44 99
e 44 105
e 44 106
e 44 107
e 44 109
e 45 46
e 45 48
e 45 49
e 45 53
e 45 54
e 45 57
e 45 58
e 45 59
e 45 61
e 45 64
e 45 67
e 45 73
e 45 74
e 45 76
e 45 81
e 45 85
e 45 87
e 45 90
e 45 91
e 45 93
e 45 95
e 45 96
e 45 104
e 45 105
e 45 106
e 45 107
e 45 109
e 46 57
e 46 67
e 46 76
e 46 81
e 46 86
e 46 90
e 46 93
e 46 104
e 46 109
e 47 48
e 47 50
e 47 53
e 47 54
e 47 55
e 47 56
e 47 60
e 47 62
e 47 63
e 47 64
e 47 65
e 47 66
e 47 68
e 47 69
e 47 70
e 47 71
e 47 73
e 47 74
e 47 75
e 47 78
e 47 79
e 47 80
e 47 82
e 47 83
e 47 84
e 47 87
e 47 88
e 47 89
e 47 92
e 47 95
e 47 96
e 47 97
e 47 98
e 47 99
e 47 100
e 47 101
e 47 102
e 47 103
e 47 107
e 47 108
e 48 53
e 48 54
e 48 55
e 48 61
e 48 62
e 48 64
e 48 66
e 48 67
e 48 68
e 48 70
e 48 73
e 48 74
e 48 75
e 48 76
e 48 78
e 48 79
e 48 80
e 48 81
e 48 82
e 48 83
e 48 87
e 48 88
e 48 89
e 48 90
e 48 95
e 48 96
e 48 97
e 48 98
e 48 101
e 48 103
e 48 104
e 48 107
e 48 109
e 49 51
e 49 53
e 49 54
e 49 57
e 49 58
e 49 59
e 49 61
e 49 64
e 49 67
e 49 69
e 49 73
e 49 74
e 49 76
e 49 77
e 49 81
e 49 84
e 49 85
e 49 87
e 49 90
e 49 91
e 49 92
e 49 93
e 49 94
e 49 95
e 49 96
e 49 97
e 49 104
e 49 105
e 49 106
e 49 107
e 49 109
e 50 54
e 50 55
e 50 56
e 50 62
e 50 65
e 50 66
e 50 68
e 50 70
e 50 73
e 50 74
e 50 75
e 50 78
e 50 79
e 50 80
e 50 82
e 50 83
e 50 88
e 50 89
e 50 95
e 50 96
e 50 97
e 50 98
e 50 99
e 50 100
e 50 101
e 50 102
e 50 103
e 50 107
e 50 108
e 51 57
e 51 58
e 51 59
e 51 61
e 51 76
e 51 77
e 51 85
e 51 86
e 51 91
e 51 93
e 51 94
e 51 105
e 51 106
e 51 109
e 52 72
e 52 86
e 53 54
e 53 55
e 53 57
e 53 58
e 53 59
e 53 61
e 53 62
e 53 64
e 53 65
e 53 66
e 53 67
e 53 68
e 53 69
e 53 70
e 53 71
e 53 73
e 53 74
e 53 75
e 53 76
e 53 77
e 53 78
e 53 79
e 53 80
e 53 81
e 53 82
e 53 83
e 53 84
e 53 85
e 53 87
e 53 88
e 53 89
e 53 90
e 53 91
e 53 92
e 53 93
e 53 94
e 53 95
e 53 96
e 53 97
e 53 98
e 53 99
e 53 101
e 53 102
e 53 103
e 53 104
e 53 105
e 53 106
e 53 107
e 53 108
e 53 109
e 54 55
e 54 57
e 54 61
e 54 62
e 54 64
e 54 65
e 54 66
e 54 67
e 54 68
e 54 69
e 54 70
e 54 71
e 54 73
e 54 74
e 54 75
e 54 76
e 54 78
e 54 79
e 54 80
e 54 81
e 54 82
e 54 83
e 54 84
e 54 85
e 54 87
e 54 88
e 54 89
e 54 90
e 54 91
e 54 93
e 54 94
e 54 95
e 54 96
e 54 97
e 54 98
e 54 99
e 54 100
e 54 101
e 54 102
e 54 103
e 54 104
e 54 105
e 54 107
e 54 108
e 54 109
e 55 56
e 55 60
e 55 61
e 55 62
e 55 63
e 55 64
e 55 65
e 55 66
e 55 68
e 55 69
e 55 70
e 55 71
e 55 73
e 55 74
e 55 75
e 55 78
e 55 79
e 55 80
e 55 81
e 55 82
e 55 83
e 55 84
e 55 85
e 55 87
e 55 88
e 55 89
e 55 90
e 55 92
e 55 95
e 55 96
e 55 97
e 55 98
e 55 99
e 55 100
e 55 101
e 55 102
e 55 103
e 55 107
e 55 108
e 56 62
e 56 66
e 56 68
e 56 70
e 56 74
e 56 75
e 56 78
e 56 79
e 56 80
e 56 82
e 56 83
e 56 88
e 56 89
e 56 95
e 56 96
e 56 97
e 56 98
e 56 100
e 56 101
e 56 102
e 56 103
e 56 108
e 57 58
e 57 59
e 57 61
e 57 64
e 57 67
e 57 76
e 57 77
e 57 81
e 57 86
e 57 87
e 57 90
e 57 91
e 57 93
e 57 104
e 57 105
e 57 106
e 57 109
e 58 59
e 58 61
e 58 64
e 58 69
e 58 73
e 58 76
e 58 77
e 58 84
e 58 85
e 58 87
e 58 91
e 58 93
e 58 94
e 58 104
e 58 105
e 58 106
e 58 107
e 58 109
e 59 61
e 59 64
e 59 67
e 59 76
e 59 77
e 59 85
e 59 86
e 59 91
e 59 93
e 59 94
e 59 105
e 59 106
e 59 109
e 60 63
e 60 65
e 60 69
e 60 71
e 60 78
e 60 84
e 60 92
e 60 99
e 60 101
e 60 102
e 60 108
e 61 64
e 61 65
e 61 67
e 61 68
e 61 69
e 61 71
e 61 73
e 61 74
e 61 75
e 61 76
e 61 77
e 61 78
e 61 81
e 61 83
e 61 84
e 61 85
e 61 87
e 61 88
e 61 90
e 61 91
e 61 92
e 61 93
e 61 94
e 61 95
e 61 96
e 61 97
e 61 99
e 61 101
e 61 104
e 61 105
e 61 106
e 61 107
e 61 109
e 62 64
e 62 65
e 62 66
e 62 68
e 62 70
e 62 73
e 62 74
e 62 75
e 62 78
e 62 79
e 62 80
e 62 82
e 62 83
e 62 87
e 62 88
e 62 89
e 62 90
e 62 95
e 62 96
e 62 97
e 62 98
e 62 99
e 62 100
e 62 101
e 62 102
e 62 103
e 62 107
e 62 108
e 63 65
e 63 69
e 63 71
e 63 78
e 63 84
e 63 92
e 63 99
e 63 101
e 63 102
e 63 107
e 63 108
e 64 65
e 64 66
e 64 67
e 64 68
e 64 69
e 64 70
e 64 71
e 64 73
e 64 74
e 64 75
e 64 76
e 64 77
e 64 78
e 64 79
e 64 80
e 64 81
e 64 82
e 64 83
e 64 84
e 64 85
e 64 87
e 64 88
e 64 89
e 64 90
e 64 91
e 64 92
e 64 93
e 64 94
e 64 95
e 64 96
e 64 97
e 64 98
e 64 99
e 64 101
e 64 102
e 64 103
e 64 104
e 64 105
e 64 106
e 64 107
e 64 108
e 64 109
e 65 66
e 65 68
e 65 69
e 65 70
e 65 71
e 65 73
e 65 74
e 65 75
e 65 78
e 65 79
e 65 80
e 65 83
e 65 84
e 65 85
e 65 88
e 65 89
e 65 92
e 65 94
e 65 95
e 65 96
e 65 97
e 65 98
e 65 99
e 65 101
e 65 102
e 65 103
e 65 107
e 65 108
e 66 68
e 66 70
e 66 73
e 66 74
e 66 75
e 66 78
e 66 79
e 66 80
e 66 82
e 66 83
e 66 87
e 66 88
e 66 89
e 66 95
e 66 96
e 66 97
e 66 98
e 66 99
e 66 100
e 66 101
e 66 102
e 66 103
e 66 107
e 66 108
e 67 73
e 67 74
e 67 76
e 67 81
e 67 87
e 67 90
e 67 91
e 67 93
e 67 104
e 67 107
e 67 109
e 68 69
e 68 70
e 68 71
e 68 73
e 68 74
e 68 75
e 68 76
e 68 78
e 68 79
e 68 80
e 68 81
e 68 82
e 68 83
e 68 84
e 68 87
e 68 88
e 68 89
e 68 90
e 68 95
e 68 96
e 68 97
e 68 98
e 68 99
e 68 100
e 68 101
e 68 102
e 68 103
e 68 104
e 68 107
e 68 108
e 68 109
e 69 70
e 69 71
e 69 73
e 69 74
e 69 75
e 69 77
e 69 78
e 69 79
e 69 83
e 69 84
e 69 85
e 69 87
e 69 88
e 69 89
e 69 90
e 69 91
e 69 92
e 69 94
e 69 95
e 69 96
e 69 97
e 69 98
e 69 99
e 69 101
e 69 102
e 69 105
e 69 107
e 69 108
e 70 71
e 70 73
e 70 74
e 70 75
e 70 78
e 70 79
e 70 80
e 70 82
e 70 83
e 70 87
e 70 88
e 70 89
e 70 95
e 70 96
e 70 97
e 70 98
e 70 99
e 70 100
e 70 101
e 70 102
e 70 103
e 70 107
e 70 108
e 71 73
e 71 74
e 71 77
e 71 78
e 71 79
e 71 83
e 71 84
e 71 85
e 71 88
e 71 89
e 71 92
e 71 94
e 71 95
e 71 96
e 71 97
e 71 98
e 71 99
e 71 101
e 71 102
e 71 103
e 71 105
e 71 107
e 71 108
e 72 86
e 73 74
e 73 75
e 73 76
e 73 77
e 73 78
e 73 79
e 73 80
e 73 81
e 73 82
e 73 83
e 73 84
e 73 85
e 73 87
e 73 88
e 73 89
e 73 90
e 73 91
e 73 92
e 73 93
e 73 94
e 73 95
e 73 96
e 73 97
e 73 98
e 73 99
e 73 100
e 73 101
e 73 102
e 73 103
e 73 104
e 73 105
e 73 107
e 73 108
e 73 109
e 74 75
e 74 76
e 74 78
e 74 79
e 74 80
e 74 81
e 74 82
e 74 83
e 74 84
e 74 85
e 74 87
e 74 88
e 74 89
e 74 90
e 74 91
e 74 92
e 74 93
e 74 95
e 74 96
e 74 97
e 74 98
e 74 99
e 74 100
e 74 101
e 74 102
e 74 103
e 74 104
e 74 105
e 74 107
e 74 108
e 74 109
e 75 76
e 75 78
e 75 79
e 75 80
e 75 81
e 75 82
e 75 83
e 75 84
e 75 87
e 75 88
e 75 89
e 75 90
e 75 95
e 75 96
e 75 97
e 75 98
e 75 99
e 75 100
e 75 101
e 75 102
e 75 103
e 75 104
e 75 107
e 75 108
e 76 77
e 76 81
e 76 85
e 76 87
e 76 88
e 76 90
e 76 91
e 76 93
e 76 94
e 76 95
e 76 96
e 76 97
e 76 104
e 76 105
e 76 106
e 76 107
e 76 109
e 77 84
e 77 85
e 77 91
e 77 92
e 77 93
e 77 94
e 77 99
e 77 105
e 77 106
e 77 107
e 77 109
e 78 79
e 78 80
e 78 82
e 78 83
e 78 84
e 78 85
e 78 87
e 78 88
e 78 89
e 78 92
e 78 95
e 78 96
e 78 97
e 78 98
e 78 99
e 78 100
e 78 101
e 78 102
e 78 103
e 78 107
e 78 108
e 79 80
e 79 82
e 79 83
e 79 84
e 79 87
e 79 88
e 79 89
e 79 92
e 79 95
e 79 96
e 79 97
e 79 98
e 79 99
e 79 100
e 79 101
e 79 102
e 79 103
e 79 107
e 79 108
e 80 82
e 80 83
e 80 87
e 80 88
e 80 89
e 80 95
e 80 96
e 80 97
e 80 98
e 80 99
e 80 100
e 80 101
e 80 102
e 80 103
e 80 107
e 80 108
e 81 83
e 81 87
e 81 88
e 81 89
e 81 90
e 81 93
e 81 95
e 81 96
e 81 97
e 81 101
e 81 104
e 81 107
e 81 109
e 82 83
e 82 87
e 82 88
e 82 89
e 82 95
e 82 96
e 82 97
e 82 98
e 82 100
e 82 101
e 82 102
e 82 103
e 82 107
e 82 108
e 83 84
e 83 87
e 83 88
e 83 89
e 83 90
e 83 92
e 83 95
e 83 96
e 83 97
e 83 98
e 83 99
e 83 100
e 83 101
e 83 102
e 83 103
e 83 107
e 83 108
e 84 85
e 84 87
e 84 88
e 84 91
e 84 92
e 84 94
e 84 95
e 84 96
e 84 97
e 84 98
e 84 99
e 84 101
e 84 102
e 84 105
e 84 107
e 84 108
e 85 87
e 85 91
e 85 92
e 85 93
e 85 94
e 85 95
e 85 99
e 85 104
e 85 105
e 85 106
e 85 107
e 85 109
e 86 93
e 86 106
e 87 88
e 87 89
e 87 90
e 87 91
e 87 93
e 87 94
e 87 95
e 87 96
e 87 97
e 87 98
e 87 99
e 87 101
e 87 102
e 87 103
e 87 104
e 87 105
e 87 107
e 87 109
e 88 89
e 88 90
e 88 92
e 88 95
e 88 96
e 88 97
e 88 98
e 88 99
e 88 100
e 88 101
e 88 102
e 88 103
e 88 104
e 88 107
e 88 108
e 89 90
e 89 95
e 89 96
e 89 97
e 89 98
e 89 99
e 89 100
e 89 101
e 89 102
e 89 103
e 89 107
e 89 108
e 90 91
e 90 93
e 90 95
e 90 96
e 90 97
e 90 98
e 90 101
e 90 104
e 90 107
e 90 109
e 91 92
e 91 93
e 91 94
e 91 104
e 91 105
e 91 106
e 91 107
e 91 109
e 92 94
e 92 95
e 92 96
e 92 97
e 92 99
e 92 101
e 92 102
e 92 105
e 92 107
e 92 108
e 93 94
e 93 104
e 93 105
e 93 106
e 93 107
e 93 109
e 94 99
e 94 105
e 94 106
e 94 107
e 94 109
e 95 96
e 95 97
e 95 98
e 95 99
e 95 100
e 95 101
e 95 102
e 95 103
e 95 104
e 95 107
e 95 108
e 95 109
e 96 97
e 96 98
e 96 99
e 96 100
e 96 101
e 96 102
e 96 103
e 96 104
e 96 107
e 96 108
e 96 109
e 97 98
e 97 99
e 97 100
e 97 101
e 97 102
e 97 103
e 97 104
e 97 107
e 97 108
e 97 109
e 98 99
e 98 100
e 98 101
e 98 102
e 98 103
e 98 107
e 98 108
e 99 101
e 99 102
e 99 103
e 99 105
e 99 107
e 99 108
e 100 101
e 100 102
e 100 103
e 100 108
e 101 102
e 101 103
e 101 107
e 101 108
e 102 103
e 102 107
e 102 108
e 103 107
e 103 108
e 104 105
e 104 106
e 104 107
e 104 109
e 105 106
e 105 107
e 105 109
e 106 109
e 107 108
e 107 109
